Ni - (111) + CO on-top                  
   3.5299999999999998     
     0.7071067800000000    0.0000000000000000    0.0000000000000000
    -0.3535533900000000    0.6123724000000000    0.0000000000000000
     0.0000000000000000    0.0000000000000000    5.1961523999999999
  Ni/             C/              O/            
               5               1               1
Selective dynamics
Direct
  0.0000000000000000  0.0000000000000000  0.0023303313048260   F   F   F
  0.3333333300000021  0.6666666699999979  0.1114685745832986   F   F   F
  0.6666666699999979  0.3333333300000021  0.2218089731957846   F   F   F
  0.0000000000000000  0.0000000000000000  0.3321695530222897   F   F   F
  0.3333333300000021  0.6666666699999979  0.4440849805617262   F   F   F
  0.3333333300000021  0.6666666699999979  0.5396230426358528   T   T   T
  0.3333333300000021  0.6666666699999979  0.6018442543223340   T   T   T

  0.00000000E+00  0.00000000E+00  0.00000000E+00
  0.00000000E+00  0.00000000E+00  0.00000000E+00
  0.00000000E+00  0.00000000E+00  0.00000000E+00
  0.00000000E+00  0.00000000E+00  0.00000000E+00
  0.00000000E+00  0.00000000E+00  0.00000000E+00
  0.00000000E+00  0.00000000E+00  0.00000000E+00
  0.00000000E+00  0.00000000E+00  0.00000000E+00
