3D\Atomistic                            
   1.00000000000000     
    10.0000000000000000    0.0000000000000000    0.0000000000000000
     0.0000000000000000   10.0000000000000000    0.0000000000000000
     0.0000000000000000    0.0000000000000000   10.0000000000000000
  C               N               H             
     1     1     3
Direct
     0.5230358167908733    0.5130951087789413    0.4425418813765916
     0.5832844711271719    0.4894153168197519    0.5523778376602237
     0.5773171563578288    0.4972212331795163    0.3482015600848527
     0.4189303323609224    0.5489242710619706    0.4336994213151186
     0.5214422233631950    0.5082440701598188    0.6308792995632143
 
  0.00000000E+00  0.00000000E+00  0.00000000E+00
  0.00000000E+00  0.00000000E+00  0.00000000E+00
  0.00000000E+00  0.00000000E+00  0.00000000E+00
  0.00000000E+00  0.00000000E+00  0.00000000E+00
  0.00000000E+00  0.00000000E+00  0.00000000E+00
