3D\Atomistic                            
   1.00000000000000     
    10.0000000000000000    0.0000000000000000    0.0000000000000000
     0.0000000000000000   10.0000000000000000    0.0000000000000000
     0.0000000000000000    0.0000000000000000   10.0000000000000000
   C    N    H 
     1     1     3
Direct
  0.5230358167908753  0.5130951087789420  0.4425418813765925
  0.5832844711271713  0.4894153168197520  0.5523778376602256
  0.5773171563578271  0.4972212331795143  0.3482015600848496
  0.4189303323609230  0.5489242710619735  0.4336994213151167
  0.5214422233631948  0.5082440701598171  0.6328792995632161
 
  0.00000000E+00  0.00000000E+00  0.00000000E+00
  0.00000000E+00  0.00000000E+00  0.00000000E+00
  0.00000000E+00  0.00000000E+00  0.00000000E+00
  0.00000000E+00  0.00000000E+00  0.00000000E+00
  0.00000000E+00  0.00000000E+00  0.00000000E+00
