CO molecule in a box                    
   1.0000000000000000     
    10.0000000000000000    0.0000000000000000    0.0000000000000000
     0.0000000000000000   10.0000000000000000    0.0000000000000000
     0.0000000000000000    0.0000000000000000   10.0000000000000000
  C/              O/            
               1               1
Direct
  0.0000000000000000  0.0000000000000000  0.0172090306062245
  0.0000000000000000  0.0000000000000000  0.1107909693937781

  0.00000000E+00  0.00000000E+00  0.00000000E+00
  0.00000000E+00  0.00000000E+00  0.00000000E+00
